NAME : LR2_6_1
TYPE : PDPTW
DIMENSION : 150
EDGE_WEIGHT_TYPE : EXACT_2D
NODE_COORD_SECTION
1 1 0
2 150 0
3 0 0
4 -33 4261
5 0 2
6 1399 1475
7 3 284
8 3054 10
9 38 139
10 10 0
11 178 19
12 0 608
13 -15 1855
14 0 7
15 2889 2994
16 8 175
17 3083 10
18 45 115
19 10 68
20 203 5
21 0 193
22 18 3060
23 280 12
24 863 994
25 13 274
26 2171 10
27 232 121
28 10 87
29 83 -2
30 21 0
31 33 669
32 139 17
33 1755 1878
34 18 61
35 1432 10
36 80 35
37 10 0
38 135 -23
39 106 0
40 2 702
41 15 22
42 2074 2166
43 23 102
44 254 10
45 276 28
46 10 0
47 179 -17
48 42 0
49 23 563
50 602 27
51 2516 2595
52 28 61
53 2661 10
54 283 144
55 10 0
56 232 -11
57 190 0
58 20 2416
59 140 32
60 2278 2416
61 33 176
62 2593 10
63 117 168
64 10 0
65 102 29
66 0 601
67 -20 1634
68 0 37
69 2711 2776
70 38 29
71 3101 10
72 136 241
73 10 367
74 42 17
75 0 295
76 -27 1778
77 0 42
78 2364 2459
79 43 136
80 2478 10
81 230 80
82 10 246
83 172 -3
84 586 0
85 -21 1000
86 0 47
87 2733 2878
88 48 72
89 2879 10
90 57 125
91 10 115
92 47 6
93 0 194
94 21 2775
95 153 52
96 2541 2643
97 53 220
98 2614 10
99 191 234
100 10 0
101 40 22
102 0 389
103 13 1474
104 585 57
105 429 494
106 58 272
107 1528 10
108 56 116
109 10 210
110 93 39
111 0 71
112 -27 3538
113 0 62
114 2766 2865
115 63 208
116 1367 10
117 285 283
118 10 247
119 37 -3
120 385 0
121 19 144
122 479 67
123 493 594
124 68 37
125 597 10
126 201 175
127 10 143
128 155 11
129 0 507
130 -39 3657
131 0 72
132 2690 2774
133 73 279
134 2918 10
135 46 155
136 10 470
137 178 -17
138 492 0
139 -12 545
140 0 77
141 2567 2761
142 78 268
143 3512 10
144 207 149
145 10 300
146 123 4
147 0 357
148 16 2735
149 281 82
150 249 462
PICKUP_AND_DELIVERY_SECTION
1 0 0 0 0 0 0
2 0 0 0 0 4823 0
3 0 0 0 0 0 133
4 0 0 0 0 10 10
5 0 0 0 0 41 41
6 0 0 0 0 24 24
7 0 0 0 0 12 12
8 0 0 0 0 266 0
9 0 0 0 0 1326 1326
10 0 0 0 0 5 5
11 0 0 0 0 3197 3197
12 0 0 0 0 241 241
13 0 0 0 0 10 10
14 0 0 0 0 221 221
15 0 0 0 0 196 196
16 0 0 0 0 -26 -26
17 0 0 0 0 0 0
18 0 0 0 0 889 889
19 0 0 0 0 10 0
20 0 0 0 0 2277 2277
21 0 0 0 0 178 178
22 0 0 0 0 10 10
23 0 0 0 0 2 2
24 0 0 0 0 0 0
25 0 0 0 0 -21 -21
26 0 0 0 0 0 0
27 0 0 0 0 2286 2286
28 0 0 0 0 15 0
29 0 0 0 0 875 875
30 0 0 0 0 275 275
31 0 0 0 0 10 10
32 0 0 0 0 211 211
33 0 0 0 0 477 477
34 0 0 0 0 7 7
35 0 0 0 0 159 0
36 0 0 0 0 2051 2051
37 0 0 0 0 20 20
38 0 0 0 0 3736 3736
39 0 0 0 0 60 60
40 0 0 0 0 10 10
41 0 0 0 0 127 127
42 0 0 0 0 0 0
43 0 0 0 0 15 15
44 0 0 0 0 189 0
45 0 0 0 0 1078 1078
46 0 0 0 0 25 25
47 0 0 0 0 3413 3413
48 0 0 0 0 289 289
49 0 0 0 0 0 0
50 0 0 0 0 134 134
51 0 0 0 0 238 238
52 0 0 0 0 -19 -19
53 0 0 0 0 0 0
54 0 0 0 0 481 481
55 0 0 0 0 30 30
56 0 0 0 0 3859 3859
57 0 0 0 0 120 120
58 0 0 0 0 10 10
59 0 0 0 0 64 64
60 0 0 0 0 0 0
61 0 0 0 0 -21 -21
62 0 0 0 0 0 0
63 0 0 0 0 82 82
64 0 0 0 0 35 35
65 0 0 0 0 4301 4301
66 0 0 0 0 157 157
67 0 0 0 0 10 10
68 0 0 0 0 3 3
69 0 0 0 0 461 461
70 0 0 0 0 -12 -12
71 0 0 0 0 0 0
72 0 0 0 0 1532 1532
73 0 0 0 0 40 0
74 0 0 0 0 1141 1141
75 0 0 0 0 183 183
76 0 0 0 0 10 10
77 0 0 0 0 299 299
78 0 0 0 0 0 0
79 0 0 0 0 -17 -17
80 0 0 0 0 0 0
81 0 0 0 0 3290 3290
82 0 0 0 0 45 0
83 0 0 0 0 3115 3115
84 0 0 0 0 136 136
85 0 0 0 0 10 10
86 0 0 0 0 200 200
87 0 0 0 0 222 222
88 0 0 0 0 -25 -25
89 0 0 0 0 0 0
90 0 0 0 0 841 841
91 0 0 0 0 50 0
92 0 0 0 0 553 553
93 0 0 0 0 262 262
94 0 0 0 0 10 10
95 0 0 0 0 250 250
96 0 0 0 0 364 364
97 0 0 0 0 -19 -19
98 0 0 0 0 0 0
99 0 0 0 0 274 274
100 0 0 0 0 55 55
101 0 0 0 0 3546 3546
102 0 0 0 0 227 227
103 0 0 0 0 10 10
104 0 0 0 0 141 141
105 0 0 0 0 0 0
106 0 0 0 0 8 8
107 0 0 0 0 77 0
108 0 0 0 0 934 934
109 0 0 0 0 60 0
110 0 0 0 0 2051 2051
111 0 0 0 0 120 120
112 0 0 0 0 10 10
113 0 0 0 0 119 119
114 0 0 0 0 577 577
115 0 0 0 0 -16 -16
116 0 0 0 0 0 0
117 0 0 0 0 2200 2200
118 0 0 0 0 65 0
119 0 0 0 0 3368 3368
120 0 0 0 0 180 180
121 0 0 0 0 10 10
122 0 0 0 0 139 139
123 0 0 0 0 0 0
124 0 0 0 0 7 7
125 0 0 0 0 9 0
126 0 0 0 0 2787 2787
127 0 0 0 0 70 0
128 0 0 0 0 179 179
129 0 0 0 0 94 94
130 0 0 0 0 10 10
131 0 0 0 0 135 135
132 0 0 0 0 167 167
133 0 0 0 0 -9 -9
134 0 0 0 0 0 0
135 0 0 0 0 3051 3051
136 0 0 0 0 75 0
137 0 0 0 0 3168 3168
138 0 0 0 0 15 15
139 0 0 0 0 10 10
140 0 0 0 0 146 146
141 0 0 0 0 58 58
142 0 0 0 0 -5 -5
143 0 0 0 0 0 0
144 0 0 0 0 1397 1397
145 0 0 0 0 80 0
146 0 0 0 0 254 254
147 0 0 0 0 103 103
148 0 0 0 0 10 10
149 0 0 0 0 235 235
150 0 0 0 0 0 0
DEPOT_SECTION
1 
-1
EOF
